sat
(:max-memory         18.45
 :memory             18.20
 :nlsat-propagations 8
 :nlsat-stages       4
 :num-allocs         28966
 :rlimit-count       108036
 :time               0.09
 :total-time         0.09)
